\ Model Routes
\ LP format - for model browsing. Use MPS format to capture full model detail.
Maximize
  1533.228206194839 R{0,0} + 2591.679024458567 R{0,1}
   + 2591.679024458567 R{0,2} - 249.2301939667805 R{0,3}
   + 234.7650315204939 R{0,4} + 397.2891588355392 R{0,5}
   + 1740.126354762624 R{0,6} + 3120.210078812674 R{0,7}
   + 1245.064389799075 R{0,8} + 2964.192602768722 R{0,9}
   + 1231.550670874894 R{0,10} + 2252.316025917724 R{0,11}
   + 2109.467353401432 R{0,12} + 1989.684863574244 R{0,13}
   + 1792.25649086671 R{0,14} + 359.3275665160141 R{0,15}
   + 2309.080047066064 R{0,16} + 1652.77994408169 R{0,17}
   + 2427.541483677917 R{0,18} + 1953.382038087649 R{0,19}
   + 1741.996922860557 R{0,20} + 2571.961610647142 R{0,21}
   + 2727.947885257138 R{0,22} + 1940.158865319532 R{0,23}
   + 1202.993761962134 R{0,24} + 2566.968315702926 R{0,25}
   - 256.140831891889 R{1,0} + 22.55008804458731 R{1,1}
   + 1141.439937477706 R{1,2} + 1141.439937477706 R{1,3}
   + 1025.40156286049 R{1,4} + 1400.704012969444 R{1,5}
   + 801.7917580557671 R{1,6} + 223.8350230091162 R{1,7}
   + 1437.557398583252 R{1,8} + 479.796637571526 R{1,9}
   + 1634.801684592135 R{1,10} + 1438.699197809802 R{1,11}
   + 946.2849488355187 R{1,12} + 818.7526696885673 R{1,13}
   + 296.9833773693523 R{1,14} + 1421.320343125643 R{1,15}
   + 519.3155701576464 R{1,16} + 1144.24990952785 R{1,17}
   + 1018.405906958984 R{1,18} + 989.3760339770233 R{1,19}
   + 472.8663427046002 R{1,20} + 376.9389773807724 R{1,21}
   - 278.4443928850388 R{2,0} - 59.13410337035452 R{2,1}
   + 602.7748664658451 R{2,2} + 1100.505917706273 R{2,3}
   + 527.2434038891503 R{2,4} + 169.7937037984649 R{2,5}
   + 916.1855209384714 R{2,6} + 1750.394033829414 R{2,7}
   + 533.4435820708042 R{2,8} + 736.9011240275875 R{2,9}
   + 465.2175846111744 R{2,10} + 1127.126554447374 R{2,11}
   + 1153.329323355648 R{2,12} - 260.2482995389823 R{3,0}
   + 967.7221973521264 R{3,1} + 2038.112677924125 R{3,2}
   + 2399.115395194246 R{3,3} + 2130.166617076728 R{3,4}
   + 1630.53019515473 R{3,5} + 2311.450916601505 R{3,6}
   + 2058.581226405857 R{3,7} + 2143.160836451558 R{3,8}
   + 2062.542239204593 R{3,9} + 2084.652300441828 R{3,10}
   + 1741.946581061699 R{3,11} + 1965.318390573296 R{3,12}
   + 1113.414646745748 R{3,13} + 904.5358737153792 R{3,14}
   + 1903.594567572976 R{3,15} + 1667.941433937096 R{3,16}
   + 1486.128853542306 R{3,17} + 2070.000774230228 R{3,18}
   + 882.2723411383754 R{3,19} + 1952.662821710375 R{3,20}
   + 2041.308170217623 R{3,21} + 865.4978545245194 R{3,22}
   + 1594.191146615044 R{3,23} + 1531.333568551915 R{3,24}
   + 1755.072999854096 R{3,25} - 242.5208875955131 R{4,0}
   + 1055.572474837385 R{4,1} + 1576.196574514046 R{4,2}
   + 1518.476392418149 R{4,3} + 1396.332219309262 R{4,4}
   + 1064.388166124108 R{4,5} + 1427.515206076762 R{4,6}
   + 528.3822683272241 R{4,7} + 1974.251169078534 R{4,8}
   + 1394.605532704561 R{4,9} + 1680.035485524247 R{4,10}
   + 2225.854373710562 R{4,11} + 1197.868792341311 R{4,12}
   + 1879.213676591761 R{4,13} + 1918.8296778719 R{4,14}
   + 1793.13976014286 R{4,15} + 1293.33386260571 R{4,16}
   + 1849.527024324595 R{4,17} + 963.8568883902283 R{4,18}
   + 656.2926561200444 R{4,19} + 1915.710230719496 R{4,20}
   + 1254.149945309782 R{4,21} + 922.9227457797037 R{4,22}
   + 757.9636568937898 R{4,23} + 971.0040064459413 R{4,24}
   - 231.9775664337766 R{5,0} + 40.49903117334031 R{5,1}
   + 364.0546919427258 R{5,2} + 280.3736433838321 R{5,3}
   + 202.4485930666674 R{5,4} + 1101.739617834898 R{5,5}
   + 1315.25182691649 R{5,6} + 334.3135858305623 R{5,7}
   + 1075.775763843674 R{5,8} + 217.3215738331709 R{5,9}
   + 427.8531276309369 R{5,10} + 88.29030329956788 R{5,11}
   + 145.4727993234753 R{5,12} - 231.1436095783099 R{6,0}
   + 120.1285528432641 R{6,1} + 1144.238169502638 R{6,2}
   + 1709.383530245978 R{6,3} + 633.4312052041043 R{6,4}
   + 337.4596319514291 R{6,5} + 584.5854722435263 R{6,6}
   + 849.0863121144773 R{6,7} + 864.3394850627401 R{6,8}
   + 1126.049187704288 R{6,9} + 1602.001493588611 R{6,10}
   + 1868.072196214979 R{6,11} + 1443.795819446832 R{6,12}
   + 1967.839685911127 R{6,13} + 1171.623103413655 R{6,14}
   + 963.3057746805989 R{6,15} + 799.6714684869015 R{6,16}
   + 1765.509267279329 R{6,17} + 1010.643851905908 R{6,18}
   + 540.6063408988653 R{6,19} + 588.207947357007 R{6,20}
   + 314.5182915318649 R{6,21} + 534.2036321387127 R{6,22}
   + 1266.279309140942 R{6,23} + 1376.737405146452 R{6,24}
   + 1011.223523847485 R{6,25} + 707.7059564407384 R{6,26}
   + 812.3775097516559 R{6,27}
Subject To
 R00: R{0,0} <= 1
 R01: R{0,1} <= 1
 R02: R{0,2} <= 1
 R03: R{0,3} <= 1
 R04: R{0,4} <= 1
 R05: R{0,5} <= 1
 R06: R{0,6} <= 1
 R07: R{0,7} <= 1
 R08: R{0,8} <= 1
 R09: R{0,9} <= 1
 R010: R{0,10} <= 1
 R011: R{0,11} <= 1
 R012: R{0,12} <= 1
 R013: R{0,13} <= 1
 R014: R{0,14} <= 1
 R015: R{0,15} <= 1
 R016: R{0,16} <= 1
 R017: R{0,17} <= 1
 R018: R{0,18} <= 1
 R019: R{0,19} <= 1
 R020: R{0,20} <= 1
 R021: R{0,21} <= 1
 R022: R{0,22} <= 1
 R023: R{0,23} <= 1
 R024: R{0,24} <= 1
 R025: R{0,25} <= 1
 R026: R{1,0} <= 1
 R027: R{1,1} <= 1
 R028: R{1,2} <= 1
 R029: R{1,3} <= 1
 R030: R{1,4} <= 1
 R031: R{1,5} <= 1
 R032: R{1,6} <= 1
 R033: R{1,7} <= 1
 R034: R{1,8} <= 1
 R035: R{1,9} <= 1
 R036: R{1,10} <= 1
 R037: R{1,11} <= 1
 R038: R{1,12} <= 1
 R039: R{1,13} <= 1
 R040: R{1,14} <= 1
 R041: R{1,15} <= 1
 R042: R{1,16} <= 1
 R043: R{1,17} <= 1
 R044: R{1,18} <= 1
 R045: R{1,19} <= 1
 R046: R{1,20} <= 1
 R047: R{1,21} <= 1
 R048: R{2,0} <= 1
 R049: R{2,1} <= 1
 R050: R{2,2} <= 1
 R051: R{2,3} <= 1
 R052: R{2,4} <= 1
 R053: R{2,5} <= 1
 R054: R{2,6} <= 1
 R055: R{2,7} <= 1
 R056: R{2,8} <= 1
 R057: R{2,9} <= 1
 R058: R{2,10} <= 1
 R059: R{2,11} <= 1
 R060: R{2,12} <= 1
 R061: R{3,0} <= 1
 R062: R{3,1} <= 1
 R063: R{3,2} <= 1
 R064: R{3,3} <= 1
 R065: R{3,4} <= 1
 R066: R{3,5} <= 1
 R067: R{3,6} <= 1
 R068: R{3,7} <= 1
 R069: R{3,8} <= 1
 R070: R{3,9} <= 1
 R071: R{3,10} <= 1
 R072: R{3,11} <= 1
 R073: R{3,12} <= 1
 R074: R{3,13} <= 1
 R075: R{3,14} <= 1
 R076: R{3,15} <= 1
 R077: R{3,16} <= 1
 R078: R{3,17} <= 1
 R079: R{3,18} <= 1
 R080: R{3,19} <= 1
 R081: R{3,20} <= 1
 R082: R{3,21} <= 1
 R083: R{3,22} <= 1
 R084: R{3,23} <= 1
 R085: R{3,24} <= 1
 R086: R{3,25} <= 1
 R087: R{4,0} <= 1
 R088: R{4,1} <= 1
 R089: R{4,2} <= 1
 R090: R{4,3} <= 1
 R091: R{4,4} <= 1
 R092: R{4,5} <= 1
 R093: R{4,6} <= 1
 R094: R{4,7} <= 1
 R095: R{4,8} <= 1
 R096: R{4,9} <= 1
 R097: R{4,10} <= 1
 R098: R{4,11} <= 1
 R099: R{4,12} <= 1
 R0100: R{4,13} <= 1
 R0101: R{4,14} <= 1
 R0102: R{4,15} <= 1
 R0103: R{4,16} <= 1
 R0104: R{4,17} <= 1
 R0105: R{4,18} <= 1
 R0106: R{4,19} <= 1
 R0107: R{4,20} <= 1
 R0108: R{4,21} <= 1
 R0109: R{4,22} <= 1
 R0110: R{4,23} <= 1
 R0111: R{4,24} <= 1
 R0112: R{5,0} <= 1
 R0113: R{5,1} <= 1
 R0114: R{5,2} <= 1
 R0115: R{5,3} <= 1
 R0116: R{5,4} <= 1
 R0117: R{5,5} <= 1
 R0118: R{5,6} <= 1
 R0119: R{5,7} <= 1
 R0120: R{5,8} <= 1
 R0121: R{5,9} <= 1
 R0122: R{5,10} <= 1
 R0123: R{5,11} <= 1
 R0124: R{5,12} <= 1
 R0125: R{6,0} <= 1
 R0126: R{6,1} <= 1
 R0127: R{6,2} <= 1
 R0128: R{6,3} <= 1
 R0129: R{6,4} <= 1
 R0130: R{6,5} <= 1
 R0131: R{6,6} <= 1
 R0132: R{6,7} <= 1
 R0133: R{6,8} <= 1
 R0134: R{6,9} <= 1
 R0135: R{6,10} <= 1
 R0136: R{6,11} <= 1
 R0137: R{6,12} <= 1
 R0138: R{6,13} <= 1
 R0139: R{6,14} <= 1
 R0140: R{6,15} <= 1
 R0141: R{6,16} <= 1
 R0142: R{6,17} <= 1
 R0143: R{6,18} <= 1
 R0144: R{6,19} <= 1
 R0145: R{6,20} <= 1
 R0146: R{6,21} <= 1
 R0147: R{6,22} <= 1
 R0148: R{6,23} <= 1
 R0149: R{6,24} <= 1
 R0150: R{6,25} <= 1
 R0151: R{6,26} <= 1
 R0152: R{6,27} <= 1
 R1_0: R{0,0} + R{0,1} + R{0,2} + R{0,3} + R{0,4} + R{0,5} + R{0,6}
   + R{0,7} + R{0,8} + R{0,9} + R{0,10} + R{0,11} + R{0,12} + R{0,13}
   + R{0,14} + R{0,15} + R{0,16} + R{0,17} + R{0,18} + R{0,19} + R{0,20}
   + R{0,21} + R{0,22} + R{0,23} + R{0,24} + R{0,25} <= 1
 R1_1: R{1,0} + R{1,1} + R{1,2} + R{1,3} + R{1,4} + R{1,5} + R{1,6}
   + R{1,7} + R{1,8} + R{1,9} + R{1,10} + R{1,11} + R{1,12} + R{1,13}
   + R{1,14} + R{1,15} + R{1,16} + R{1,17} + R{1,18} + R{1,19} + R{1,20}
   + R{1,21} <= 1
 R1_2: R{2,0} + R{2,1} + R{2,2} + R{2,3} + R{2,4} + R{2,5} + R{2,6}
   + R{2,7} + R{2,8} + R{2,9} + R{2,10} + R{2,11} + R{2,12} <= 1
 R1_3: R{3,0} + R{3,1} + R{3,2} + R{3,3} + R{3,4} + R{3,5} + R{3,6}
   + R{3,7} + R{3,8} + R{3,9} + R{3,10} + R{3,11} + R{3,12} + R{3,13}
   + R{3,14} + R{3,15} + R{3,16} + R{3,17} + R{3,18} + R{3,19} + R{3,20}
   + R{3,21} + R{3,22} + R{3,23} + R{3,24} + R{3,25} <= 1
 R1_4: R{4,0} + R{4,1} + R{4,2} + R{4,3} + R{4,4} + R{4,5} + R{4,6}
   + R{4,7} + R{4,8} + R{4,9} + R{4,10} + R{4,11} + R{4,12} + R{4,13}
   + R{4,14} + R{4,15} + R{4,16} + R{4,17} + R{4,18} + R{4,19} + R{4,20}
   + R{4,21} + R{4,22} + R{4,23} + R{4,24} <= 1
 R1_5: R{5,0} + R{5,1} + R{5,2} + R{5,3} + R{5,4} + R{5,5} + R{5,6}
   + R{5,7} + R{5,8} + R{5,9} + R{5,10} + R{5,11} + R{5,12} <= 1
 R1_6: R{6,0} + R{6,1} + R{6,2} + R{6,3} + R{6,4} + R{6,5} + R{6,6}
   + R{6,7} + R{6,8} + R{6,9} + R{6,10} + R{6,11} + R{6,12} + R{6,13}
   + R{6,14} + R{6,15} + R{6,16} + R{6,17} + R{6,18} + R{6,19} + R{6,20}
   + R{6,21} + R{6,22} + R{6,23} + R{6,24} + R{6,25} + R{6,26} + R{6,27}
   <= 1
 R2_0: 7 R{0,0} + 7 R{0,1} + 7 R{0,2} + 7 R{0,6} + 7 R{0,7} + 7 R{0,8}
   + 7 R{0,9} + 7 R{0,11} + 7 R{0,12} + 7 R{0,13} + 7 R{0,14} + 7 R{0,16}
   + 7 R{0,17} + 7 R{0,19} + 7 R{0,20} + 7 R{0,21} + 7 R{0,22} + 7 R{0,23}
   + 7 R{0,24} + 7 R{0,25} <= 7
 R2_1: 10 R{0,11} + 10 R{1,4} + 10 R{1,7} + 10 R{1,9} + 10 R{1,11}
   + 10 R{1,14} + 10 R{1,15} + 10 R{1,17} + 10 R{1,19} + 10 R{2,6}
   + 10 R{2,9} + 10 R{3,1} + 10 R{3,2} + 10 R{3,3} + 10 R{3,4} + 10 R{3,6}
   + 10 R{3,9} + 10 R{3,11} + 10 R{3,13} + 10 R{3,19} + 10 R{3,20}
   + 10 R{3,21} + 10 R{3,24} + 10 R{3,25} + 10 R{6,12} <= 10
 R2_2: <= 0
 R2_3: 4 R{1,8} + 4 R{1,10} + 4 R{1,13} + 4 R{1,16} + 4 R{1,18} + 4 R{5,1}
   + 4 R{5,2} + 4 R{5,3} + 4 R{5,4} + 4 R{5,5} + 4 R{5,7} + 4 R{5,10}
   + 4 R{5,12} <= 4
 R2_4: <= 0
 R2_5: 5 R{5,1} + 5 R{5,2} + 5 R{5,3} + 5 R{5,4} + 5 R{5,7} <= 5
 R2_6: 10 R{0,15} + 10 R{1,5} + 10 R{1,16} + 10 R{1,20} + 10 R{2,7}
   + 10 R{3,12} + 10 R{3,14} + 10 R{5,9} + 10 R{6,1} + 10 R{6,2}
   + 10 R{6,3} + 10 R{6,4} + 10 R{6,6} + 10 R{6,7} + 10 R{6,9} + 10 R{6,12}
   + 10 R{6,13} + 10 R{6,15} + 10 R{6,16} + 10 R{6,17} + 10 R{6,18}
   + 10 R{6,20} <= 10
 R2_7: <= 0
 R2_8: <= 0
 R2_9: 12 R{4,1} + 12 R{4,2} + 12 R{4,3} + 12 R{4,4} + 12 R{4,5}
   + 12 R{4,6} + 12 R{4,7} + 12 R{4,8} + 12 R{4,9} + 12 R{4,10}
   + 12 R{4,11} + 12 R{4,12} + 12 R{4,14} + 12 R{4,15} + 12 R{4,16}
   + 12 R{4,17} + 12 R{4,20} + 12 R{4,21} + 12 R{4,22} + 12 R{4,23}
   + 12 R{4,24} <= 12
 R2_10: 8 R{0,17} + 8 R{3,10} + 8 R{6,1} + 8 R{6,2} + 8 R{6,3} + 8 R{6,4}
   + 8 R{6,5} + 8 R{6,6} + 8 R{6,9} + 8 R{6,10} + 8 R{6,11} + 8 R{6,12}
   + 8 R{6,13} + 8 R{6,14} + 8 R{6,17} + 6 R{6,18} + 8 R{6,20} + 8 R{6,22}
   + 8 R{6,24} <= 8
 R2_11: 15 R{3,10} <= 15
 R2_12: <= 0
 R2_13: <= 0
 R2_14: <= 0
 R2_15: 11 R{0,0} + 11 R{0,1} + 11 R{0,2} + 11 R{0,6} + 11 R{0,8}
   + 11 R{0,9} + 11 R{0,12} + 11 R{0,13} + 11 R{0,16} + 11 R{0,19}
   + 11 R{0,25} + 11 R{4,1} + 11 R{4,2} + 11 R{4,7} + 11 R{4,9}
   + 10 R{4,14} + 10 R{4,20} <= 11
 R2_16: 5 R{0,11} + 5 R{0,17} + 5 R{4,12} + 5 R{4,14} + 5 R{4,15}
   + 5 R{4,16} + 5 R{4,20} + 5 R{4,21} + 5 R{4,22} + 5 R{4,23} + 5 R{4,24}
   + 5 R{6,13} <= 5
 R2_17: 11 R{2,12} + 11 R{3,11} + 11 R{3,22} <= 11
 R2_18: <= 0
 R2_19: 11 R{0,6} + 11 R{1,8} + 10 R{2,4} + 10 R{2,8} + 11 R{4,1}
   + 11 R{4,2} + 11 R{4,3} + 11 R{4,4} + 11 R{4,5} + 11 R{4,6} + 11 R{4,8}
   + 11 R{4,10} + 11 R{4,11} + 11 R{4,13} + 11 R{4,14} + 11 R{4,20}
   + 11 R{5,3} + 11 R{5,5} + 11 R{5,7} + 11 R{5,10} <= 11
 R2_20: 13 R{0,5} + 13 R{0,10} + 13 R{1,21} + 13 R{2,3} + 13 R{2,10}
   + 13 R{2,11} + 13 R{3,1} + 13 R{3,2} + 13 R{3,3} + 13 R{3,4} + 13 R{3,6}
   + 13 R{3,7} + 13 R{3,8} + 13 R{3,9} + 13 R{3,10} + 13 R{3,11}
   + 13 R{3,16} + 13 R{3,18} + 13 R{3,19} + 13 R{3,20} + 13 R{3,21}
   + 13 R{3,23} + 13 R{3,24} + 13 R{3,25} + 13 R{5,2} <= 13
 R2_21: <= 0
 R2_22: 10 R{0,12} + 10 R{0,13} + 10 R{0,16} + 10 R{0,17} + 10 R{0,18}
   + 10 R{0,19} + 10 R{3,12} + 10 R{3,14} + 10 R{3,22} + 10 R{4,5}
   + 10 R{4,10} + 10 R{4,11} + 10 R{4,12} + 10 R{4,13} + 10 R{4,22}
   + 10 R{4,24} <= 10
 R2_23: 14 R{3,12} + 14 R{4,3} + 14 R{4,11} + 14 R{4,15} + 14 R{4,17}
   + 14 R{4,21} + 14 R{6,2} + 14 R{6,3} + 14 R{6,4} + 14 R{6,7}
   + 14 R{6,10} + 12 R{6,11} + 14 R{6,14} + 14 R{6,17} + 14 R{6,22}
   + 12 R{6,24} <= 14
 R2_24: 10 R{0,7} + 10 R{0,20} + 10 R{0,21} + 10 R{0,22} + 10 R{0,23}
   + 10 R{3,1} + 10 R{3,2} + 10 R{3,3} + 10 R{3,5} + 10 R{3,6} + 10 R{3,8}
   + 10 R{3,9} + 10 R{3,10} + 10 R{3,13} + 10 R{3,16} + 10 R{3,19}
   + 10 R{3,20} + 10 R{3,21} + 10 R{3,23} + 10 R{3,24} + 10 R{3,25}
   + 10 R{5,4} + 10 R{5,8} <= 10
 R2_25: 13 R{0,0} + 13 R{0,1} + 13 R{0,2} + 13 R{0,6} + 13 R{0,7}
   + 13 R{0,8} + 13 R{0,9} + 13 R{0,11} + 13 R{0,12} + 13 R{0,13}
   + 13 R{0,14} + 13 R{0,16} + 13 R{0,17} + 13 R{0,18} + 13 R{0,19}
   + 13 R{0,20} + 13 R{0,23} + 13 R{0,24} + 13 R{0,25} + 13 R{2,7}
   + 13 R{3,17} + 13 R{4,1} + 13 R{4,2} + 13 R{4,3} + 13 R{4,4} + 13 R{4,6}
   + 13 R{4,7} + 13 R{4,8} + 13 R{4,14} + 13 R{4,20} + 13 R{4,22} <= 13
 R2_26: 6 R{1,1} + 6 R{1,2} + 6 R{1,3} + 6 R{1,4} + 6 R{1,5} + 6 R{1,6}
   + 6 R{1,7} + 6 R{1,9} + 6 R{1,12} + 6 R{1,14} + 6 R{1,15} + 6 R{1,20}
   + 6 R{5,6} + 6 R{5,8} <= 6
 R2_27: 5 R{0,6} + 5 R{0,9} + 5 R{0,12} + 5 R{0,13} + 5 R{0,16} + 5 R{0,17}
   + 5 R{0,18} + 5 R{0,19} + 5 R{0,24} + 5 R{0,25} + 5 R{1,2} + 5 R{1,3}
   + 5 R{1,5} + 5 R{1,8} + 5 R{1,10} + 5 R{1,11} + 5 R{1,15} + 5 R{1,16}
   + 5 R{1,17} + 5 R{1,18} + 5 R{2,7} + 5 R{2,12} + 5 R{3,11} + 5 R{3,17}
   + 5 R{3,22} + 5 R{4,17} + 5 R{6,6} + 5 R{6,20} + 5 R{6,21} + 5 R{6,26}
   <= 5
 R2_28: <= 0
 R2_29: <= 0
 R2_30: <= 0
 R2_31: 6 R{6,1} + 6 R{6,2} + 6 R{6,4} + 6 R{6,5} + 6 R{6,6} + 6 R{6,7}
   + 6 R{6,9} + 6 R{6,10} + 6 R{6,12} + 6 R{6,16} + 6 R{6,18} + 6 R{6,19}
   + 6 R{6,20} + 6 R{6,21} + 6 R{6,26} <= 6
 R2_32: 7 R{0,4} + 7 R{0,5} + 7 R{0,10} + 7 R{0,15} + 7 R{1,6} + 7 R{3,16}
   + 7 R{3,22} + 7 R{5,5} + 7 R{5,6} + 7 R{5,8} + 7 R{5,9} + 7 R{5,10}
   + 7 R{5,11} <= 7
 R2_33: 12 R{3,25} + 12 R{4,15} + 12 R{4,16} + 12 R{4,21} + 12 R{4,23}
   + 12 R{5,6} <= 12
 R2_34: 5 R{0,0} + 5 R{0,1} + 5 R{0,2} + 5 R{0,6} + 5 R{0,7} + 5 R{0,8}
   + 5 R{0,9} + 5 R{0,11} + 5 R{0,12} + 5 R{0,13} + 5 R{0,14} + 5 R{0,16}
   + 5 R{0,17} + 5 R{0,18} + 5 R{0,19} + 5 R{0,21} + 5 R{0,23} + 5 R{0,25}
   + 5 R{2,7} + 5 R{3,4} + 5 R{3,5} + 5 R{3,15} + 5 R{3,17} + 5 R{4,18}
   + 5 R{6,27} <= 5
 R2_35: <= 0
 R2_36: 15 R{1,1} + 15 R{1,2} + 15 R{1,3} + 15 R{1,4} + 15 R{1,5}
   + 15 R{1,8} + 15 R{1,9} + 15 R{1,13} + 15 R{1,14} + 15 R{1,15}
   + 15 R{1,18} + 15 R{1,19} + 15 R{1,20} <= 16
 R2_37: 5 R{2,4} + 5 R{2,5} + 5 R{2,7} + 5 R{2,8} + 5 R{2,12} + 5 R{5,1}
   + 5 R{5,11} <= 5
 R2_38: <= 0
 R2_39: 15 R{0,0} + 15 R{0,1} + 15 R{0,2} + 15 R{0,6} + 15 R{0,11}
   + 15 R{0,12} + 15 R{0,16} + 15 R{0,18} + 15 R{0,19} + 15 R{0,24} <= 17
 R2_40: 15 R{0,10} + 15 R{0,15} + 15 R{2,1} + 15 R{2,2} + 15 R{2,3}
   + 15 R{2,4} + 15 R{2,5} + 15 R{2,6} + 15 R{2,8} + 15 R{2,10}
   + 15 R{2,11} + 15 R{5,4} + 15 R{5,12} <= 15
 R2_41: 5 R{0,0} + 5 R{0,1} + 5 R{0,2} + 5 R{0,7} + 5 R{0,9} + 5 R{0,11}
   + 5 R{0,20} + 5 R{0,22} + 5 R{0,23} + 5 R{0,25} + 5 R{1,10} + 5 R{3,2}
   + 5 R{3,3} + 5 R{3,4} + 5 R{3,5} + 5 R{3,7} + 5 R{3,8} + 5 R{3,9}
   + 5 R{3,15} + 5 R{3,16} + 5 R{3,18} + 5 R{3,20} + 5 R{3,21} + 5 R{3,23}
   + 5 R{3,24} + 5 R{4,9} + 5 R{4,10} + 5 R{4,13} + 5 R{4,17} + 5 R{6,5}
   + 5 R{6,8} + 5 R{6,10} + 5 R{6,16} + 5 R{6,19} <= 5
 R2_42: 4 R{2,1} + 4 R{2,2} + 4 R{2,3} + 4 R{2,6} + 4 R{2,9} + 4 R{2,10}
   + 4 R{2,11} <= 4
 R2_43: <= 0
 R2_44: <= 0
 R2_45: <= 0
 R2_46: 9 R{0,7} + 9 R{0,8} + 9 R{0,9} + 9 R{0,13} + 9 R{0,14} + 9 R{0,20}
   + 9 R{0,21} + 9 R{0,22} + 9 R{0,23} + 9 R{0,25} + 9 R{4,6} + 4 R{4,7}
   + 9 R{4,8} + 9 R{4,11} + 5 R{4,18} + 5 R{4,19} + 9 R{4,22} + 9 R{6,9}
   + 9 R{6,11} + 9 R{6,12} + 9 R{6,13} + 9 R{6,18} + 9 R{6,23} + 9 R{6,24}
   + 9 R{6,25} + 9 R{6,27} <= 9
 R2_47: 7 R{0,0} + 7 R{0,1} + 7 R{0,2} + 7 R{0,8} + 7 R{0,11} + 7 R{1,1}
   + 7 R{1,2} + 7 R{1,3} + 7 R{1,16} <= 7
 R2_48: 4 R{0,7} + 4 R{0,20} + 4 R{0,21} + 4 R{0,22} + 4 R{0,23} + 4 R{4,1}
   + 4 R{4,2} + 4 R{4,3} + 4 R{4,4} + 4 R{4,5} + 4 R{4,6} + 4 R{4,8}
   + 4 R{4,9} + 4 R{4,10} + 4 R{4,12} + 4 R{4,13} + 4 R{4,14} + 4 R{4,20}
   + 4 R{4,24} <= 4
 R2_49: <= 0
 R2_50: <= 0
 R2_51: 11 R{1,20} + 11 R{1,21} + 11 R{4,15} + 11 R{4,21} + 11 R{5,12}
   <= 11
 R2_52: 10 R{4,18} + 10 R{4,19} + 10 R{4,23} <= 10
 R2_53: 13 R{4,1} + 13 R{4,2} + 13 R{4,3} + 13 R{4,5} + 13 R{4,6}
   + 13 R{4,7} + 13 R{4,8} + 13 R{4,9} + 13 R{4,11} + 13 R{4,14}
   + 13 R{4,17} + 13 R{4,20} <= 13
 R2_54: 9 R{3,1} + 9 R{3,2} + 9 R{3,3} + 9 R{3,4} + 9 R{3,5} + 9 R{3,6}
   + 9 R{3,7} + 9 R{3,8} + 9 R{3,9} + 9 R{3,10} + 9 R{3,13} + 9 R{3,15}
   + 9 R{3,16} + 9 R{3,18} + 9 R{3,19} + 9 R{3,20} + 9 R{3,21} + 9 R{3,23}
   + 9 R{3,24} + 9 R{3,25} <= 9
 R2_55: 8 R{6,24} <= 8
 R2_56: 6 R{0,1} + 6 R{0,2} + 6 R{0,7} + 6 R{0,9} + 6 R{0,11} + 6 R{0,13}
   + 6 R{0,18} + 6 R{0,21} + 6 R{0,22} + 6 R{0,24} + 6 R{3,2} + 6 R{3,3}
   + 6 R{3,4} + 6 R{3,5} + 6 R{3,6} + 6 R{3,7} + 6 R{3,8} + 6 R{3,9}
   + 6 R{3,10} + 6 R{3,11} + 6 R{3,14} + 6 R{3,15} + 6 R{3,16} + 6 R{3,18}
   + 6 R{3,20} + 6 R{3,21} + 6 R{3,23} + 6 R{3,25} + 6 R{4,4} + 6 R{4,10}
   + 6 R{4,12} + 6 R{4,13} + 6 R{4,15} + 6 R{4,18} + 6 R{4,24} + 6 R{6,2}
   + 6 R{6,3} + 6 R{6,10} + 6 R{6,17} + 6 R{6,25} + 6 R{6,26} <= 6
 R2_57: <= 0
 R2_58: <= 0
 R2_59: 10 R{2,7} + 10 R{2,12} + 10 R{3,6} + 10 R{3,11} + 10 R{3,17}
   + 10 R{4,15} + 10 R{4,16} + 10 R{4,19} + 10 R{4,21} + 10 R{4,23}
   + 10 R{6,11} + 10 R{6,24} <= 10
 R2_60: <= 0
 R2_61: 9 R{0,23} + 9 R{3,12} + 9 R{3,17} + 9 R{3,21} + 9 R{3,23}
   + 9 R{3,24} + 9 R{4,18} + 9 R{4,19} + 9 R{6,7} + 9 R{6,10} + 9 R{6,14}
   + 9 R{6,15} + 9 R{6,16} + 9 R{6,18} + 9 R{6,19} + 9 R{6,22} + 9 R{6,23}
   + 9 R{6,25} + 9 R{6,27} <= 9
 R2_62: <= 0
 R2_63: <= 0
 R2_64: <= 0
 R2_65: <= 5
 R2_66: 7 R{1,9} + 7 R{1,13} + 7 R{3,12} + 7 R{3,14} + 7 R{3,22} <= 7
 R2_67: 3 R{0,7} + 3 R{0,16} + 3 R{0,17} + 3 R{0,18} + 3 R{0,20}
   + 3 R{0,21} + 3 R{0,22} + 3 R{3,2} + 3 R{3,3} + 3 R{3,4} + 3 R{3,5}
   + 3 R{3,6} + 3 R{3,8} + 3 R{3,10} + 3 R{3,15} + 3 R{3,17} + 3 R{3,20}
   + 3 R{4,13} + 3 R{6,9} + 3 R{6,11} + 3 R{6,12} + 3 R{6,13} + 3 R{6,24}
   <= 3
 R2_68: 6 R{2,4} + 6 R{2,5} + 6 R{2,7} + 6 R{2,8} + 6 R{2,12} + 6 R{4,1}
   + 6 R{4,3} + 6 R{4,4} + 6 R{4,5} + 6 R{4,6} <= 6
 R2_69: 7 R{0,0} + 7 R{0,1} + 7 R{0,2} + 7 R{0,6} + 7 R{0,8} + 7 R{0,11}
   + 7 R{0,14} + 7 R{4,1} + 7 R{4,2} + 7 R{4,3} + 7 R{4,4} + 7 R{4,5}
   + 7 R{4,6} + 7 R{4,7} + 7 R{4,8} + 7 R{4,9} + 7 R{4,10} + 7 R{4,11}
   + 7 R{4,12} + 7 R{4,13} + 7 R{4,14} + 4 R{4,15} + 7 R{4,20} <= 7
 R2_70: 11 R{6,1} + 11 R{6,2} + 11 R{6,3} + 11 R{6,4} + 11 R{6,6}
   + 11 R{6,7} + 11 R{6,9} + 11 R{6,11} + 11 R{6,12} + 11 R{6,13}
   + 11 R{6,14} + 11 R{6,15} + 11 R{6,17} + 11 R{6,18} + 11 R{6,22}
   + 11 R{6,23} + 11 R{6,24} + 11 R{6,25} <= 11
 R2_71: 7 R{0,21} + 7 R{0,22} + 7 R{1,19} + 7 R{3,1} + 7 R{3,2} + 7 R{3,3}
   + 7 R{3,4} + 7 R{3,5} + 7 R{3,6} + 7 R{3,9} + 7 R{3,10} + 7 R{3,12}
   + 7 R{3,14} + 7 R{3,16} + 7 R{3,21} + 7 R{6,2} + 7 R{6,3} + 7 R{6,9}
   + 7 R{6,10} + 7 R{6,12} + 7 R{6,13} + 7 R{6,17} + 7 R{6,18} + 7 R{6,23}
   + 7 R{6,25} + 7 R{6,27} <= 7
 R2_72: <= 0
 R2_73: 11 R{0,0} + 11 R{0,1} + 11 R{0,2} + 11 R{0,6} + 11 R{0,8}
   + 11 R{0,9} + 11 R{0,12} + 11 R{0,13} + 11 R{0,14} + 11 R{0,24}
   + 11 R{0,25} <= 11
 R2_74: 5 R{5,1} + 5 R{5,2} + 5 R{5,3} + 5 R{5,7} <= 5
 R2_75: 8 R{6,1} + 8 R{6,2} + 8 R{6,3} + 8 R{6,4} + 8 R{6,5} + 8 R{6,6}
   + 8 R{6,7} + 8 R{6,8} + 8 R{6,9} + 8 R{6,10} + 5 R{6,11} + 8 R{6,12}
   + 8 R{6,13} + 8 R{6,14} + 8 R{6,15} + 8 R{6,16} + 8 R{6,17} + 8 R{6,18}
   + 8 R{6,19} + 8 R{6,20} + 8 R{6,21} + 8 R{6,22} + 8 R{6,23} + 5 R{6,24}
   + 8 R{6,25} + 8 R{6,26} + 8 R{6,27} <= 8
 R2_76: 12 R{0,4} + 12 R{1,10} + 12 R{1,11} + 12 R{1,12} + 12 R{2,7}
   + 12 R{2,12} + 12 R{3,3} + 12 R{3,6} + 12 R{3,7} + 12 R{3,9}
   + 12 R{3,10} + 12 R{3,18} + 12 R{3,25} + 12 R{5,6} <= 12
 R2_77: 7 R{0,1} + 7 R{0,2} + 7 R{0,7} + 7 R{0,9} + 7 R{0,10} + 7 R{0,12}
   + 7 R{0,14} + 7 R{0,16} + 7 R{0,18} + 7 R{0,19} + 7 R{0,21} + 7 R{0,22}
   + 7 R{0,25} + 7 R{1,2} + 7 R{1,3} + 7 R{1,4} + 7 R{1,5} + 7 R{1,6}
   + 7 R{1,8} + 7 R{1,10} + 7 R{1,11} + 7 R{1,12} + 7 R{1,13} + 7 R{1,15}
   + 7 R{1,17} + 7 R{1,18} + 7 R{1,19} + 7 R{2,2} + 7 R{2,3} + 7 R{2,6}
   + 7 R{2,9} + 7 R{2,11} + 7 R{3,7} + 5 R{3,8} + 7 R{3,12} + 7 R{3,13}
   + 7 R{3,15} + 7 R{3,18} + 7 R{4,2} + 7 R{4,8} + 7 R{4,9} + 7 R{4,11}
   + 7 R{4,14} + 7 R{4,16} + 7 R{4,17} + 7 R{4,20} + 7 R{5,5} + 7 R{5,6}
   + 7 R{5,8} + 7 R{6,3} + 7 R{6,8} + 7 R{6,11} + 7 R{6,13} + 7 R{6,14}
   + 7 R{6,15} + 7 R{6,17} + 7 R{6,23} <= 7
Bounds
End
